40
    53    96    10    66    86    76    93    77    74    90    96    26    91    48    45    88    41    13    45    40    54     1    78    62    89    82     5    36    35    77    65    51     5    63    74    95    44    68    27    60
     7    10     6     8     3     8     6    10     8     3     9     8    10     8     9     5     5     4     2     4     8     4    10    10     2     2     6    10     9     4     8     9    10     4     5     5     3    10     3     6
     0     0   414   395   895   454     0     0     0     0     0   562     0     0     0     0     0   208   502   719   492   689   205     0     0     0     0     0     0   369     0   387    62     0   802   592   115   492   512     0
